c File: flat30_3_0.col
c
c SOURCE: Joseph Culberson (joe@cs.ualberta.ca)
c DESCRIPTION: Quasi-random coloring problem
c              generated with flatness = 0
c                             probability = 0.200
c                             known coloring = 3
c                             random seed = 248145
c              Creation Date:  Fri Nov 29 22:02:49 1996
c Maximum degree = 6 Minimum degree = 2
c
c cnf created by edge2cnf
p cnf 90 300
-1 -2 0
-1 -3 0
-2 -3 0
1 2 3 0
-4 -5 0
-4 -6 0
-5 -6 0
4 5 6 0
-7 -8 0
-7 -9 0
-8 -9 0
7 8 9 0
-10 -11 0
-10 -12 0
-11 -12 0
10 11 12 0
-13 -14 0
-13 -15 0
-14 -15 0
13 14 15 0
-16 -17 0
-16 -18 0
-17 -18 0
16 17 18 0
-19 -20 0
-19 -21 0
-20 -21 0
19 20 21 0
-22 -23 0
-22 -24 0
-23 -24 0
22 23 24 0
-25 -26 0
-25 -27 0
-26 -27 0
25 26 27 0
-28 -29 0
-28 -30 0
-29 -30 0
28 29 30 0
-31 -32 0
-31 -33 0
-32 -33 0
31 32 33 0
-34 -35 0
-34 -36 0
-35 -36 0
34 35 36 0
-37 -38 0
-37 -39 0
-38 -39 0
37 38 39 0
-40 -41 0
-40 -42 0
-41 -42 0
40 41 42 0
-43 -44 0
-43 -45 0
-44 -45 0
43 44 45 0
-46 -47 0
-46 -48 0
-47 -48 0
46 47 48 0
-49 -50 0
-49 -51 0
-50 -51 0
49 50 51 0
-52 -53 0
-52 -54 0
-53 -54 0
52 53 54 0
-55 -56 0
-55 -57 0
-56 -57 0
55 56 57 0
-58 -59 0
-58 -60 0
-59 -60 0
58 59 60 0
-61 -62 0
-61 -63 0
-62 -63 0
61 62 63 0
-64 -65 0
-64 -66 0
-65 -66 0
64 65 66 0
-67 -68 0
-67 -69 0
-68 -69 0
67 68 69 0
-70 -71 0
-70 -72 0
-71 -72 0
70 71 72 0
-73 -74 0
-73 -75 0
-74 -75 0
73 74 75 0
-76 -77 0
-76 -78 0
-77 -78 0
76 77 78 0
-79 -80 0
-79 -81 0
-80 -81 0
79 80 81 0
-82 -83 0
-82 -84 0
-83 -84 0
82 83 84 0
-85 -86 0
-85 -87 0
-86 -87 0
85 86 87 0
-88 -89 0
-88 -90 0
-89 -90 0
88 89 90 0
-37 -1 0
-38 -2 0
-39 -3 0
-49 -1 0
-50 -2 0
-51 -3 0
-55 -1 0
-56 -2 0
-57 -3 0
-79 -1 0
-80 -2 0
-81 -3 0
-88 -1 0
-89 -2 0
-90 -3 0
-31 -4 0
-32 -5 0
-33 -6 0
-34 -4 0
-35 -5 0
-36 -6 0
-46 -4 0
-47 -5 0
-48 -6 0
-43 -7 0
-44 -8 0
-45 -9 0
-64 -7 0
-65 -8 0
-66 -9 0
-43 -10 0
-44 -11 0
-45 -12 0
-49 -10 0
-50 -11 0
-51 -12 0
-58 -10 0
-59 -11 0
-60 -12 0
-70 -10 0
-71 -11 0
-72 -12 0
-79 -10 0
-80 -11 0
-81 -12 0
-82 -10 0
-83 -11 0
-84 -12 0
-37 -13 0
-38 -14 0
-39 -15 0
-61 -13 0
-62 -14 0
-63 -15 0
-64 -13 0
-65 -14 0
-66 -15 0
-67 -13 0
-68 -14 0
-69 -15 0
-46 -16 0
-47 -17 0
-48 -18 0
-58 -16 0
-59 -17 0
-60 -18 0
-67 -16 0
-68 -17 0
-69 -18 0
-34 -19 0
-35 -20 0
-36 -21 0
-52 -19 0
-53 -20 0
-54 -21 0
-55 -19 0
-56 -20 0
-57 -21 0
-61 -19 0
-62 -20 0
-63 -21 0
-70 -19 0
-71 -20 0
-72 -21 0
-73 -19 0
-74 -20 0
-75 -21 0
-34 -22 0
-35 -23 0
-36 -24 0
-55 -22 0
-56 -23 0
-57 -24 0
-58 -22 0
-59 -23 0
-60 -24 0
-85 -22 0
-86 -23 0
-87 -24 0
-88 -22 0
-89 -23 0
-90 -24 0
-64 -25 0
-65 -26 0
-66 -27 0
-82 -25 0
-83 -26 0
-84 -27 0
-88 -25 0
-89 -26 0
-90 -27 0
-49 -28 0
-50 -29 0
-51 -30 0
-73 -28 0
-74 -29 0
-75 -30 0
-76 -28 0
-77 -29 0
-78 -30 0
-67 -31 0
-68 -32 0
-69 -33 0
-76 -31 0
-77 -32 0
-78 -33 0
-88 -31 0
-89 -32 0
-90 -33 0
-61 -34 0
-62 -35 0
-63 -36 0
-61 -37 0
-62 -38 0
-63 -39 0
-73 -37 0
-74 -38 0
-75 -39 0
-82 -37 0
-83 -38 0
-84 -39 0
-67 -40 0
-68 -41 0
-69 -42 0
-88 -40 0
-89 -41 0
-90 -42 0
-67 -43 0
-68 -44 0
-69 -45 0
-70 -43 0
-71 -44 0
-72 -45 0
-79 -43 0
-80 -44 0
-81 -45 0
-61 -46 0
-62 -47 0
-63 -48 0
-88 -49 0
-89 -50 0
-90 -51 0
-70 -52 0
-71 -53 0
-72 -54 0
-79 -52 0
-80 -53 0
-81 -54 0
-85 -52 0
-86 -53 0
-87 -54 0
-73 -55 0
-74 -56 0
-75 -57 0
-82 -55 0
-83 -56 0
-84 -57 0
-82 -58 0
-83 -59 0
-84 -60 0
